120
150
44
57
56
48
49
46
55
47
48
46
55
49
48
48
54
57
47
46
54
40
56
57
60
53
47
56
49
50
56
51
45
59
50
47
60
58
47
45
57
42
51
50
57
43
56
47
47
48
45
57
59
40
51
43
51
41
58
57
47
46
43
41
58
48
44
49
57
45
54
59
42
60
45
51
59
42
49
49
54
43
53
45
55
48
55
48
47
51
51
48
47
44
43
57
50
43
48
59
54
40
56
58
45
47
45
59
51
54
57
48
46
57
48
45
57
43
50
45
45
44
